data/lp_files/pEFS/38_8.lp
\ Model foo
\ LP format - for model browsing. Use MPS format to capture full model detail.
Minimize
  z
Subject To
 allocateEach[1]: x[1,1] + x[2,1] = 1
 allocateEach[2]: x[1,2] + x[2,2] = 1
 allocateEach[3]: x[1,3] + x[2,3] = 1
 allocateEach[4]: x[1,4] + x[2,4] = 1
 allocateEach[5]: x[1,5] + x[2,5] = 1
 allocateEach[6]: x[1,6] + x[2,6] = 1
 allocateEach[7]: x[1,7] + x[2,7] = 1
 allocateEach[8]: x[1,8] + x[2,8] = 1
 allocateEach[9]: x[1,9] + x[2,9] = 1
 allocateEach[10]: x[1,10] + x[2,10] = 1
 allocateEach[11]: x[1,11] + x[2,11] = 1
 allocateEach[12]: x[1,12] + x[2,12] = 1
 allocateEach[13]: x[1,13] + x[2,13] = 1
 allocateEach[14]: x[1,14] + x[2,14] = 1
 allocateEach[15]: x[1,15] + x[2,15] = 1
 allocateEach[16]: x[1,16] + x[2,16] = 1
 allocateEach[17]: x[1,17] + x[2,17] = 1
 allocateEach[18]: x[1,18] + x[2,18] = 1
 allocateAllCash: cashProportion[1] + cashProportion[2] = 1
 findWorstP[1,2]: z + 0.0786495865981105 cashProportion[1]
   - 0.0786495865981105 cashProportion[2] + 0.0610910663900823 x[1,1]
   + 0.0389512077627142 x[1,2] + 0.0909779092973643 x[1,3]
   + 0.0499818122830992 x[1,4] + 0.0095067687800466 x[1,5]
   + 0.054278045951021 x[1,6] + 0.0166245563671756 x[1,7]
   + 0.0739207802038991 x[1,8] + 0.0465900488610557 x[1,9]
   + 0.0175781826046777 x[1,10] + 0.0426575695311502 x[1,11]
   + 0.0661541335273357 x[1,12] + 0.0544648387191915 x[1,13]
   + 0.0974665001917084 x[1,14] + 0.0283531759686188 x[1,15]
   + 0.056067324046128 x[1,16] + 0.0239881239124237 x[1,17]
   + 0.0926983690041979 x[1,18] - 0.0610910663900823 x[2,1]
   - 0.0389512077627142 x[2,2] - 0.0909779092973643 x[2,3]
   - 0.0499818122830992 x[2,4] - 0.0095067687800466 x[2,5]
   - 0.054278045951021 x[2,6] - 0.0166245563671756 x[2,7]
   - 0.0739207802038991 x[2,8] - 0.0465900488610557 x[2,9]
   - 0.0175781826046777 x[2,10] - 0.0426575695311502 x[2,11]
   - 0.0661541335273357 x[2,12] - 0.0544648387191915 x[2,13]
   - 0.0974665001917084 x[2,14] - 0.0283531759686188 x[2,15]
   - 0.056067324046128 x[2,16] - 0.0239881239124237 x[2,17]
   - 0.0926983690041979 x[2,18] >= 0
 findWorstP[2,1]: z - 0.0720344324587153 cashProportion[1]
   + 0.0720344324587153 cashProportion[2] - 0.0514686019917521 x[1,1]
   - 0.0860271209638207 x[1,2] - 0.0170631561886582 x[1,3]
   - 0.0452916494084172 x[1,4] - 0.023240108771993 x[1,5]
   - 0.0842802859766969 x[1,6] - 0.0719353851140845 x[1,7]
   - 0.0298942894703668 x[1,8] - 0.0418610095625709 x[1,9]
   - 0.0675052675178735 x[1,10] - 0.0641916836247726 x[1,11]
   - 0.00302544616326604 x[1,12] - 0.0566730897368942 x[1,13]
   - 0.0784184840353689 x[1,14] - 0.0633993048677268 x[1,15]
   - 0.054782185884853 x[1,16] - 0.0846494624430478 x[1,17]
   - 0.00425903581912154 x[1,18] + 0.0514686019917521 x[2,1]
   + 0.0860271209638207 x[2,2] + 0.0170631561886582 x[2,3]
   + 0.0452916494084172 x[2,4] + 0.023240108771993 x[2,5]
   + 0.0842802859766969 x[2,6] + 0.0719353851140845 x[2,7]
   + 0.0298942894703668 x[2,8] + 0.0418610095625709 x[2,9]
   + 0.0675052675178735 x[2,10] + 0.0641916836247726 x[2,11]
   + 0.00302544616326604 x[2,12] + 0.0566730897368942 x[2,13]
   + 0.0784184840353689 x[2,14] + 0.0633993048677268 x[2,15]
   + 0.054782185884853 x[2,16] + 0.0846494624430478 x[2,17]
   + 0.00425903581912154 x[2,18] >= 0
Bounds
 z <= 1
 -infinity <= cashProportion[1] <= 1
 -infinity <= cashProportion[2] <= 1
Binaries
 x[1,1] x[1,2] x[1,3] x[1,4] x[1,5] x[1,6] x[1,7] x[1,8] x[1,9] x[1,10]
 x[1,11] x[1,12] x[1,13] x[1,14] x[1,15] x[1,16] x[1,17] x[1,18] x[2,1]
 x[2,2] x[2,3] x[2,4] x[2,5] x[2,6] x[2,7] x[2,8] x[2,9] x[2,10] x[2,11]
 x[2,12] x[2,13] x[2,14] x[2,15] x[2,16] x[2,17] x[2,18]
End
