data/mps_files/q3/38_8.mps
NAME foo
ROWS
 N  OBJ
 E  allocateEach[1]
 E  allocateEach[2]
 E  allocateEach[3]
 E  allocateEach[4]
 E  allocateEach[5]
 E  allocateEach[6]
 E  allocateEach[7]
 E  allocateEach[8]
 E  allocateEach[9]
 E  allocateEach[10]
 E  allocateEach[11]
 E  allocateEach[12]
 E  allocateEach[13]
 E  allocateEach[14]
 E  allocateEach[15]
 E  allocateEach[16]
 E  allocateEach[17]
 E  allocateEach[18]
 E  allocateAllCash
 G  findWorstP[1,2]
 G  findWorstP[2,1]
COLUMNS
    z         OBJ       1
    z         findWorstP[1,2]  1
    z         findWorstP[2,1]  1
    cashProportion[1]  allocateAllCash  1
    cashProportion[1]  findWorstP[1,2]  7.8649586598110457e-02
    cashProportion[1]  findWorstP[2,1]  -7.2034432458715270e-02
    cashProportion[2]  allocateAllCash  1
    cashProportion[2]  findWorstP[1,2]  -7.8649586598110457e-02
    cashProportion[2]  findWorstP[2,1]  7.2034432458715270e-02
    MARKER    'MARKER'                 'INTORG'
    x[1,1]    allocateEach[1]  1
    x[1,1]    findWorstP[1,2]  6.1091066390082285e-02
    x[1,1]    findWorstP[2,1]  -5.1468601991752051e-02
    x[1,2]    allocateEach[2]  1
    x[1,2]    findWorstP[1,2]  0.0389512077627142
    x[1,2]    findWorstP[2,1]  -0.0860271209638207
    x[1,3]    allocateEach[3]  1
    x[1,3]    findWorstP[1,2]  9.0977909297364254e-02
    x[1,3]    findWorstP[2,1]  -1.7063156188658175e-02
    x[1,4]    allocateEach[4]  1
    x[1,4]    findWorstP[1,2]  4.9981812283099183e-02
    x[1,4]    findWorstP[2,1]  -4.5291649408417220e-02
    x[1,5]    allocateEach[5]  1
    x[1,5]    findWorstP[1,2]  9.5067687800465990e-03
    x[1,5]    findWorstP[2,1]  -2.3240108771993010e-02
    x[1,6]    allocateEach[6]  1
    x[1,6]    findWorstP[1,2]  5.4278045951020974e-02
    x[1,6]    findWorstP[2,1]  -8.4280285976696859e-02
    x[1,7]    allocateEach[7]  1
    x[1,7]    findWorstP[1,2]  1.6624556367175594e-02
    x[1,7]    findWorstP[2,1]  -7.1935385114084524e-02
    x[1,8]    allocateEach[8]  1
    x[1,8]    findWorstP[1,2]  7.3920780203899056e-02
    x[1,8]    findWorstP[2,1]  -2.9894289470366833e-02
    x[1,9]    allocateEach[9]  1
    x[1,9]    findWorstP[1,2]  4.6590048861055673e-02
    x[1,9]    findWorstP[2,1]  -4.1861009562570904e-02
    x[1,10]   allocateEach[10]  1
    x[1,10]   findWorstP[1,2]  1.7578182604677684e-02
    x[1,10]   findWorstP[2,1]  -6.7505267517873543e-02
    x[1,11]   allocateEach[11]  1
    x[1,11]   findWorstP[1,2]  4.2657569531150151e-02
    x[1,11]   findWorstP[2,1]  -6.4191683624772636e-02
    x[1,12]   allocateEach[12]  1
    x[1,12]   findWorstP[1,2]  6.6154133527335651e-02
    x[1,12]   findWorstP[2,1]  -3.0254461632660407e-03
    x[1,13]   allocateEach[13]  1
    x[1,13]   findWorstP[1,2]  5.4464838719191486e-02
    x[1,13]   findWorstP[2,1]  -5.6673089736894229e-02
    x[1,14]   allocateEach[14]  1
    x[1,14]   findWorstP[1,2]  9.7466500191708369e-02
    x[1,14]   findWorstP[2,1]  -0.0784184840353689
    x[1,15]   allocateEach[15]  1
    x[1,15]   findWorstP[1,2]  2.8353175968618815e-02
    x[1,15]   findWorstP[2,1]  -6.3399304867726769e-02
    x[1,16]   allocateEach[16]  1
    x[1,16]   findWorstP[1,2]  5.6067324046127985e-02
    x[1,16]   findWorstP[2,1]  -5.4782185884852959e-02
    x[1,17]   allocateEach[17]  1
    x[1,17]   findWorstP[1,2]  2.3988123912423685e-02
    x[1,17]   findWorstP[2,1]  -8.4649462443047774e-02
    x[1,18]   allocateEach[18]  1
    x[1,18]   findWorstP[1,2]  9.2698369004197922e-02
    x[1,18]   findWorstP[2,1]  -0.00425903581912154
    x[2,1]    allocateEach[1]  1
    x[2,1]    findWorstP[1,2]  -6.1091066390082285e-02
    x[2,1]    findWorstP[2,1]  5.1468601991752051e-02
    x[2,2]    allocateEach[2]  1
    x[2,2]    findWorstP[1,2]  -0.0389512077627142
    x[2,2]    findWorstP[2,1]  0.0860271209638207
    x[2,3]    allocateEach[3]  1
    x[2,3]    findWorstP[1,2]  -9.0977909297364254e-02
    x[2,3]    findWorstP[2,1]  1.7063156188658175e-02
    x[2,4]    allocateEach[4]  1
    x[2,4]    findWorstP[1,2]  -4.9981812283099183e-02
    x[2,4]    findWorstP[2,1]  4.5291649408417220e-02
    x[2,5]    allocateEach[5]  1
    x[2,5]    findWorstP[1,2]  -9.5067687800465990e-03
    x[2,5]    findWorstP[2,1]  2.3240108771993010e-02
    x[2,6]    allocateEach[6]  1
    x[2,6]    findWorstP[1,2]  -5.4278045951020974e-02
    x[2,6]    findWorstP[2,1]  8.4280285976696859e-02
    x[2,7]    allocateEach[7]  1
    x[2,7]    findWorstP[1,2]  -1.6624556367175594e-02
    x[2,7]    findWorstP[2,1]  7.1935385114084524e-02
    x[2,8]    allocateEach[8]  1
    x[2,8]    findWorstP[1,2]  -7.3920780203899056e-02
    x[2,8]    findWorstP[2,1]  2.9894289470366833e-02
    x[2,9]    allocateEach[9]  1
    x[2,9]    findWorstP[1,2]  -4.6590048861055673e-02
    x[2,9]    findWorstP[2,1]  4.1861009562570904e-02
    x[2,10]   allocateEach[10]  1
    x[2,10]   findWorstP[1,2]  -1.7578182604677684e-02
    x[2,10]   findWorstP[2,1]  6.7505267517873543e-02
    x[2,11]   allocateEach[11]  1
    x[2,11]   findWorstP[1,2]  -4.2657569531150151e-02
    x[2,11]   findWorstP[2,1]  6.4191683624772636e-02
    x[2,12]   allocateEach[12]  1
    x[2,12]   findWorstP[1,2]  -6.6154133527335651e-02
    x[2,12]   findWorstP[2,1]  3.0254461632660407e-03
    x[2,13]   allocateEach[13]  1
    x[2,13]   findWorstP[1,2]  -5.4464838719191486e-02
    x[2,13]   findWorstP[2,1]  5.6673089736894229e-02
    x[2,14]   allocateEach[14]  1
    x[2,14]   findWorstP[1,2]  -9.7466500191708369e-02
    x[2,14]   findWorstP[2,1]  0.0784184840353689
    x[2,15]   allocateEach[15]  1
    x[2,15]   findWorstP[1,2]  -2.8353175968618815e-02
    x[2,15]   findWorstP[2,1]  6.3399304867726769e-02
    x[2,16]   allocateEach[16]  1
    x[2,16]   findWorstP[1,2]  -5.6067324046127985e-02
    x[2,16]   findWorstP[2,1]  5.4782185884852959e-02
    x[2,17]   allocateEach[17]  1
    x[2,17]   findWorstP[1,2]  -2.3988123912423685e-02
    x[2,17]   findWorstP[2,1]  8.4649462443047774e-02
    x[2,18]   allocateEach[18]  1
    x[2,18]   findWorstP[1,2]  -9.2698369004197922e-02
    x[2,18]   findWorstP[2,1]  0.00425903581912154
    MARKER    'MARKER'                 'INTEND'
RHS
    RHS1      allocateEach[1]  1
    RHS1      allocateEach[2]  1
    RHS1      allocateEach[3]  1
    RHS1      allocateEach[4]  1
    RHS1      allocateEach[5]  1
    RHS1      allocateEach[6]  1
    RHS1      allocateEach[7]  1
    RHS1      allocateEach[8]  1
    RHS1      allocateEach[9]  1
    RHS1      allocateEach[10]  1
    RHS1      allocateEach[11]  1
    RHS1      allocateEach[12]  1
    RHS1      allocateEach[13]  1
    RHS1      allocateEach[14]  1
    RHS1      allocateEach[15]  1
    RHS1      allocateEach[16]  1
    RHS1      allocateEach[17]  1
    RHS1      allocateEach[18]  1
    RHS1      allocateAllCash  1
BOUNDS
 UP BND1      z         1
 MI BND1      cashProportion[1]
 UP BND1      cashProportion[1]  1
 MI BND1      cashProportion[2]
 UP BND1      cashProportion[2]  1
 BV BND1      x[1,1]  
 BV BND1      x[1,2]  
 BV BND1      x[1,3]  
 BV BND1      x[1,4]  
 BV BND1      x[1,5]  
 BV BND1      x[1,6]  
 BV BND1      x[1,7]  
 BV BND1      x[1,8]  
 BV BND1      x[1,9]  
 BV BND1      x[1,10] 
 BV BND1      x[1,11] 
 BV BND1      x[1,12] 
 BV BND1      x[1,13] 
 BV BND1      x[1,14] 
 BV BND1      x[1,15] 
 BV BND1      x[1,16] 
 BV BND1      x[1,17] 
 BV BND1      x[1,18] 
 BV BND1      x[2,1]  
 BV BND1      x[2,2]  
 BV BND1      x[2,3]  
 BV BND1      x[2,4]  
 BV BND1      x[2,5]  
 BV BND1      x[2,6]  
 BV BND1      x[2,7]  
 BV BND1      x[2,8]  
 BV BND1      x[2,9]  
 BV BND1      x[2,10] 
 BV BND1      x[2,11] 
 BV BND1      x[2,12] 
 BV BND1      x[2,13] 
 BV BND1      x[2,14] 
 BV BND1      x[2,15] 
 BV BND1      x[2,16] 
 BV BND1      x[2,17] 
 BV BND1      x[2,18] 
ENDATA
